language ESSENCE' 1.0

letting jobs = 102
letting horizon = 797
letting resourcesRenew = 2
letting resourcesNonrenew = 2
letting resourceLimits = [35, 32, 404, 400]
letting successors = [[2, 3, 4, 5, 6, 7, 8, 9, 10, 11, 12, 15, 16, 17, 18, 20, 21, 22, 23, 24, 33, 38], [61, 45, 44, 42, 41, 39, 34, 32, 30, 29, 27, 14], [53, 50, 47, 43, 36, 35, 32, 25, 13], [66, 61, 59, 53, 50, 48, 44, 41, 36, 32, 31, 27, 25], [65, 61, 59, 47, 42, 40, 37, 34, 32, 30, 25], [61, 54, 53, 49, 44, 43, 41, 37, 27, 19], [66, 61, 53, 50, 48, 47, 44, 43, 41, 40, 36, 27, 25], [66, 65, 61, 59, 53, 47, 43, 42, 41, 39, 37, 32, 26], [65, 61, 54, 53, 50, 48, 47, 42, 32, 30, 25], [66, 62, 59, 54, 50, 46, 42, 40, 34, 32, 28], [65, 59, 54, 52, 51, 50, 47, 41, 39, 26], [65, 62, 61, 56, 55, 54, 53, 52, 51, 50, 49, 47, 46, 44, 43, 40], [66, 65, 62, 61, 59, 54, 48, 39, 26], [66, 62, 59, 54, 49, 46, 40, 37, 31], [66, 65, 56, 54, 53, 52, 49, 47, 46, 45, 37], [66, 65, 63, 62, 61, 59, 58, 56, 55, 53, 49, 46, 43, 40], [66, 65, 61, 59, 55, 52, 51, 47, 46, 42, 40, 39], [72, 68, 67, 66, 65, 62, 61, 60, 59, 58, 57, 55, 51, 50, 42], [66, 65, 47, 40, 25], [67, 66, 65, 62, 59, 58, 55, 53, 50, 46, 39], [72, 67, 66, 61, 56, 55, 53, 48, 47, 46, 40], [64, 61, 53, 52, 43, 32], [101, 77, 68, 65, 56, 55, 54, 49, 47, 43], [101, 67, 65, 61, 50, 48, 47, 46, 43], [81, 72, 67, 62, 60, 56, 52, 51, 46, 45], [63, 58, 56, 55, 49, 46, 40], [101, 72, 67, 65, 64, 62, 60, 58, 55, 52, 46], [101, 80, 72, 68, 65, 64, 61, 57, 56, 55, 51, 47], [101, 80, 65, 64, 63, 56, 55, 49, 46], [66, 64, 63, 62, 60, 58, 49, 46], [101, 100, 81, 77, 75, 72, 68, 64, 63, 58, 56, 47], [101, 100, 99, 77, 69, 68, 63, 60, 58, 55, 49], [101, 99, 79, 68, 66, 63, 62, 58, 57, 49], [101, 72, 69, 67, 53, 51, 48], [100, 72, 70, 69, 67, 64, 62, 60, 59, 55], [99, 81, 80, 77, 76, 75, 72, 68, 57, 54], [80, 73, 69, 68, 55, 51, 50], [100, 97, 81, 79, 77, 76, 75, 73, 72, 71, 68, 63, 62, 61], [101, 98, 81, 76, 75, 72, 70, 60, 56], [101, 99, 81, 80, 77, 75, 74, 68, 64, 60], [99, 97, 79, 77, 76, 75, 70, 69, 68, 63, 62], [101, 96, 94, 93, 80, 77, 76, 75, 56], [99, 93, 89, 80, 75, 72, 70, 57], [100, 99, 94, 89, 87, 80, 78, 77, 76, 69, 60], [101, 100, 93, 92, 80, 75, 70, 69, 64], [99, 89, 77, 75, 70, 68, 57], [99, 98, 97, 91, 89, 87, 76, 74, 70, 60], [99, 92, 91, 81, 75, 70, 64, 63], [95, 93, 91, 89, 73, 72, 71, 70, 67], [99, 96, 95, 94, 92, 91, 78, 76, 75, 74, 64], [100, 97, 92, 91, 87, 76, 74, 71, 70, 63], [99, 93, 89, 80, 76, 75, 71, 70, 69], [99, 98, 89, 87, 77, 74, 60], [98, 96, 92, 91, 64, 63], [97, 95, 94, 92, 89, 86, 81, 79, 78, 75, 71], [99, 97, 95, 90, 89, 88, 87, 79, 78, 73, 69], [100, 97, 95, 94, 87, 78, 73, 71, 69], [96, 95, 94, 93, 92, 91, 89, 87, 86, 85, 84, 83, 80, 78], [99, 98, 94, 93, 92, 89, 87, 85, 84, 77, 74], [95, 93, 79, 73, 71], [95, 94, 93, 90, 88, 87, 85, 84, 82, 74], [92, 91, 89, 88, 85, 82, 80, 74], [95, 93, 90, 89, 88, 86, 84, 83, 78], [97, 89, 87, 79, 71], [98, 94, 89, 85, 83, 82, 75], [96, 93, 91, 89, 85, 82, 75], [88, 76, 75, 74], [96, 94, 90, 85, 84, 83, 78], [91, 85, 84, 82, 74], [96, 94, 84, 78], [90, 88, 85, 83], [87, 86, 83, 82], [92, 86, 84], [86, 83], [87, 84], [83, 82], [91, 82], [82], [82], [98], [93], [102], [102], [102], [102], [102], [102], [102], [102], [102], [102], [102], [102], [102], [102], [102], [102], [102], [102], [102], [102], []]
letting durations = [[0], [2, 3, 4], [2, 3, 5], [1, 2, 6], [3, 8, 10], [1, 3, 5], [2, 4, 10], [6, 7, 9], [3, 4, 6], [4, 5, 8], [5, 8, 10], [3, 4, 9], [4, 6, 7], [1, 8, 10], [3, 5, 9], [2, 7, 9], [6, 8, 10], [2, 3, 5], [3, 6, 10], [2, 5, 7], [1, 2, 3], [2, 7, 10], [2, 4, 6], [5, 8, 9], [1, 3, 4], [2, 5, 10], [4, 4, 6], [1, 1, 8], [2, 2, 3], [1, 5, 6], [7, 10, 10], [1, 8, 8], [5, 6, 9], [1, 3, 6], [7, 8, 9], [2, 3, 8], [1, 8, 10], [4, 7, 7], [3, 6, 7], [1, 5, 6], [2, 6, 8], [6, 8, 10], [1, 6, 6], [5, 5, 10], [3, 4, 5], [2, 6, 10], [5, 5, 9], [3, 5, 10], [2, 2, 3], [1, 1, 3], [5, 6, 7], [1, 4, 9], [3, 7, 9], [1, 7, 10], [2, 5, 6], [1, 7, 8], [2, 7, 7], [1, 7, 9], [8, 10, 10], [2, 4, 10], [1, 2, 9], [2, 8, 8], [3, 7, 8], [1, 2, 5], [3, 4, 7], [4, 5, 7], [5, 5, 7], [8, 8, 10], [6, 7, 9], [1, 5, 9], [6, 7, 10], [5, 6, 9], [1, 5, 10], [1, 10, 10], [5, 9, 10], [1, 3, 3], [4, 8, 10], [9, 9, 10], [1, 2, 7], [4, 8, 10], [4, 5, 6], [1, 8, 10], [7, 8, 8], [4, 6, 8], [4, 5, 6], [2, 2, 10], [2, 6, 8], [8, 9, 10], [4, 5, 10], [1, 3, 8], [5, 6, 7], [4, 6, 7], [1, 8, 9], [2, 4, 8], [3, 6, 7], [6, 7, 9], [3, 7, 9], [3, 8, 9], [4, 7, 9], [4, 4, 9], [6, 9, 9], [0]]
letting resourceUsage = [[[0, 0, 0, 0]], [[3, 0, 5, 0], [2, 0, 4, 0], [0, 3, 0, 4]], [[4, 0, 0, 6], [3, 0, 4, 0], [1, 0, 3, 0]], [[0, 3, 0, 6], [0, 2, 0, 5], [0, 2, 0, 3]], [[0, 3, 1, 0], [4, 0, 1, 0], [2, 0, 1, 0]], [[0, 2, 0, 7], [4, 0, 0, 6], [0, 2, 0, 5]], [[2, 0, 7, 0], [2, 0, 6, 0], [0, 3, 4, 0]], [[3, 0, 9, 0], [2, 0, 0, 5], [0, 2, 5, 0]], [[0, 5, 7, 0], [0, 2, 0, 3], [5, 0, 2, 0]], [[0, 4, 0, 9], [4, 0, 6, 0], [0, 3, 1, 0]], [[3, 0, 10, 0], [0, 3, 10, 0], [3, 0, 9, 0]], [[0, 1, 9, 0], [0, 1, 8, 0], [0, 1, 7, 0]], [[5, 0, 0, 7], [3, 0, 1, 0], [0, 2, 0, 5]], [[0, 4, 0, 8], [4, 0, 0, 6], [0, 3, 7, 0]], [[4, 0, 0, 8], [3, 0, 0, 7], [0, 3, 0, 7]], [[0, 3, 7, 0], [2, 0, 6, 0], [0, 3, 6, 0]], [[0, 1, 0, 6], [3, 0, 0, 3], [0, 1, 2, 0]], [[3, 0, 7, 0], [0, 4, 5, 0], [0, 2, 0, 5]], [[4, 0, 7, 0], [4, 0, 0, 4], [4, 0, 0, 3]], [[3, 0, 0, 10], [2, 0, 0, 9], [0, 3, 7, 0]], [[0, 2, 0, 6], [3, 0, 8, 0], [0, 2, 7, 0]], [[0, 5, 5, 0], [2, 0, 4, 0], [0, 3, 0, 5]], [[0, 3, 0, 10], [0, 3, 6, 0], [4, 0, 0, 3]], [[5, 0, 8, 0], [4, 0, 0, 2], [0, 3, 8, 0]], [[2, 0, 6, 0], [2, 0, 3, 0], [2, 0, 0, 9]], [[1, 0, 6, 0], [0, 3, 6, 0], [0, 3, 5, 0]], [[2, 0, 5, 0], [2, 0, 0, 4], [2, 0, 4, 0]], [[4, 0, 10, 0], [0, 3, 7, 0], [0, 1, 0, 5]], [[0, 4, 0, 9], [3, 0, 0, 9], [0, 3, 0, 9]], [[5, 0, 0, 5], [0, 3, 5, 0], [3, 0, 4, 0]], [[0, 5, 8, 0], [0, 3, 7, 0], [4, 0, 0, 1]], [[0, 4, 0, 5], [0, 4, 6, 0], [3, 0, 0, 2]], [[4, 0, 0, 7], [0, 2, 0, 5], [4, 0, 0, 5]], [[0, 4, 7, 0], [0, 3, 0, 3], [4, 0, 0, 3]], [[0, 5, 0, 9], [2, 0, 0, 8], [0, 2, 0, 7]], [[3, 0, 0, 5], [3, 0, 5, 0], [0, 4, 5, 0]], [[5, 0, 0, 7], [4, 0, 9, 0], [0, 3, 8, 0]], [[1, 0, 0, 8], [0, 1, 7, 0], [1, 0, 0, 6]], [[5, 0, 0, 6], [0, 4, 5, 0], [1, 0, 0, 3]], [[4, 0, 0, 9], [4, 0, 9, 0], [0, 3, 0, 5]], [[0, 3, 7, 0], [0, 2, 0, 9], [1, 0, 0, 9]], [[5, 0, 5, 0], [4, 0, 5, 0], [4, 0, 0, 7]], [[0, 1, 0, 9], [3, 0, 0, 8], [2, 0, 8, 0]], [[0, 2, 5, 0], [2, 0, 3, 0], [2, 0, 0, 2]], [[4, 0, 2, 0], [4, 0, 1, 0], [0, 5, 0, 6]], [[5, 0, 0, 9], [4, 0, 0, 7], [4, 0, 0, 4]], [[3, 0, 7, 0], [0, 3, 3, 0], [0, 3, 0, 1]], [[0, 4, 0, 7], [0, 4, 3, 0], [1, 0, 3, 0]], [[0, 5, 4, 0], [0, 4, 0, 9], [3, 0, 2, 0]], [[0, 3, 0, 7], [2, 0, 0, 5], [0, 1, 3, 0]], [[0, 5, 3, 0], [0, 3, 2, 0], [3, 0, 0, 8]], [[3, 0, 0, 7], [0, 2, 3, 0], [3, 0, 1, 0]], [[4, 0, 0, 3], [4, 0, 0, 2], [0, 2, 0, 3]], [[0, 3, 0, 8], [3, 0, 0, 3], [0, 2, 1, 0]], [[0, 1, 4, 0], [2, 0, 0, 4], [1, 0, 0, 1]], [[3, 0, 6, 0], [3, 0, 0, 3], [3, 0, 0, 2]], [[4, 0, 3, 0], [3, 0, 3, 0], [2, 0, 0, 2]], [[0, 3, 0, 8], [2, 0, 0, 7], [2, 0, 2, 0]], [[5, 0, 8, 0], [0, 2, 6, 0], [2, 0, 0, 8]], [[0, 5, 4, 0], [0, 2, 0, 1], [1, 0, 3, 0]], [[3, 0, 6, 0], [0, 2, 6, 0], [2, 0, 0, 3]], [[4, 0, 9, 0], [0, 2, 0, 6], [0, 1, 5, 0]], [[5, 0, 0, 8], [0, 3, 0, 7], [0, 2, 5, 0]], [[4, 0, 6, 0], [0, 2, 6, 0], [0, 2, 5, 0]], [[0, 2, 0, 9], [1, 0, 4, 0], [1, 0, 0, 7]], [[2, 0, 6, 0], [2, 0, 0, 3], [0, 3, 0, 3]], [[3, 0, 8, 0], [0, 1, 0, 2], [2, 0, 6, 0]], [[5, 0, 0, 9], [0, 3, 0, 7], [0, 3, 0, 2]], [[5, 0, 0, 3], [0, 3, 8, 0], [2, 0, 7, 0]], [[0, 1, 8, 0], [0, 1, 0, 3], [0, 1, 7, 0]], [[3, 0, 8, 0], [1, 0, 7, 0], [1, 0, 0, 3]], [[0, 3, 0, 8], [0, 2, 8, 0], [2, 0, 0, 3]], [[2, 0, 0, 7], [0, 2, 5, 0], [1, 0, 2, 0]], [[5, 0, 5, 0], [5, 0, 3, 0], [5, 0, 0, 5]], [[1, 0, 4, 0], [1, 0, 0, 7], [1, 0, 0, 6]], [[0, 4, 0, 5], [2, 0, 0, 5], [2, 0, 3, 0]], [[5, 0, 1, 0], [0, 3, 0, 9], [3, 0, 1, 0]], [[0, 4, 7, 0], [0, 3, 0, 4], [0, 2, 0, 3]], [[0, 5, 4, 0], [0, 4, 0, 4], [2, 0, 0, 4]], [[0, 5, 0, 4], [3, 0, 1, 0], [0, 5, 0, 3]], [[0, 4, 8, 0], [2, 0, 0, 5], [1, 0, 0, 3]], [[5, 0, 5, 0], [0, 4, 0, 7], [0, 3, 0, 6]], [[1, 0, 3, 0], [0, 4, 2, 0], [0, 4, 0, 1]], [[4, 0, 0, 3], [0, 3, 0, 3], [3, 0, 0, 3]], [[0, 1, 0, 3], [1, 0, 8, 0], [0, 1, 7, 0]], [[2, 0, 0, 9], [2, 0, 7, 0], [0, 2, 0, 4]], [[0, 3, 6, 0], [0, 3, 5, 0], [0, 2, 0, 6]], [[3, 0, 0, 6], [2, 0, 0, 4], [2, 0, 5, 0]], [[1, 0, 0, 7], [0, 3, 5, 0], [1, 0, 4, 0]], [[0, 4, 10, 0], [0, 3, 9, 0], [3, 0, 8, 0]], [[5, 0, 4, 0], [0, 2, 4, 0], [0, 1, 0, 2]], [[0, 2, 6, 0], [0, 2, 5, 0], [0, 1, 3, 0]], [[5, 0, 0, 9], [0, 3, 8, 0], [4, 0, 0, 6]], [[4, 0, 10, 0], [0, 3, 10, 0], [2, 0, 10, 0]], [[0, 2, 6, 0], [4, 0, 0, 6], [0, 2, 4, 0]], [[0, 4, 0, 8], [3, 0, 3, 0], [0, 1, 1, 0]], [[0, 4, 0, 7], [0, 2, 6, 0], [2, 0, 4, 0]], [[4, 0, 8, 0], [0, 1, 0, 2], [3, 0, 0, 1]], [[0, 3, 0, 5], [2, 0, 6, 0], [2, 0, 0, 3]], [[3, 0, 3, 0], [2, 0, 0, 6], [2, 0, 2, 0]], [[3, 0, 7, 0], [0, 4, 6, 0], [0, 4, 0, 3]], [[0, 0, 0, 0]]]
